p cnf 70 35
-41 62 35 0
-34 -61 -20 0
22 50 -56 0
42 41 -48 0
-32 2 -63 0
38 -23 69 0
2 -4 69 0
-15 -1 -7 0
-39 61 1 0
66 -64 59 0
27 -29 -25 0
16 64 22 0
-42 35 -55 0
-17 43 10 0
-28 -25 52 0
-15 -11 -59 0
38 -56 -31 0
28 -69 66 0
-22 25 40 0
-3 -70 57 0
-6 -70 59 0
48 70 57 0
41 7 -17 0
-24 -50 69 0
-34 -28 2 0
44 13 62 0
33 18 64 0
38 64 69 0
-52 17 -43 0
-47 -65 -35 0
-62 -65 -58 0
-22 55 -5 0
-3 -40 -37 0
-16 27 -42 0
-28 -66 53 0
